100
30
11
7
31
20
17
25
18
23
23
1
13
31
7
1
7
4
1
4
21
23
20
16
30
32
17
18
18
16
4
3
31
31
6
25
12
20
2
14
17
22
18
21
24
2
18
2
18
1
19
1
32
10
5
9
31
12
12
13
18
31
8
7
31
12
9
31
4
14
5
18
31
11
12
17
13
5
14
4
21
16
12
13
31
11
3
32
6
8
25
31
7
31
11
28
5
30
4
2
19
2